NAME : amz2043.120909_120909.tour
COMMENT : Cost = 120909_120909
COMMENT : Found by LKH-AMZ [Keld Helsgaun] Sun May 11 15:05:47 2025
COMMENT : TW viol.: 0 #: 0
TYPE : TOUR
DIMENSION : 174
TOUR_SECTION
1
12
152
45
73
119
51
106
158
134
64
110
80
27
172
128
92
139
70
137
9
22
69
39
11
156
141
100
29
33
53
99
108
102
15
93
153
160
78
104
94
43
52
62
112
162
6
170
173
111
142
150
85
49
120
65
90
133
68
4
163
148
121
60
126
7
57
47
144
149
71
14
74
145
5
79
13
103
166
18
40
81
122
44
48
35
136
159
97
165
88
42
55
140
10
169
61
123
117
82
118
36
98
86
115
31
58
38
17
127
114
155
89
125
95
56
132
46
96
54
143
135
83
21
105
161
20
19
174
50
63
109
41
75
129
157
164
171
25
34
16
130
59
77
8
124
67
146
107
66
151
154
84
30
26
167
113
168
91
37
101
24
131
116
76
2
28
32
72
147
87
23
3
138
-1
EOF
